
Gurobi 12.0.2 (win64, Java) logging started Tue May 13 17:50:04 2025

Set parameter Username
Academic license - for non-commercial use only - expires 2026-05-09
Set parameter Presolve to value 0
Set parameter Method to value 0
Gurobi Optimizer version 12.0.2 build v12.0.2rc0 (win64 - Windows 11.0 (22631.2))

CPU model: AMD Ryzen 5 4600H with Radeon Graphics, instruction set [SSE2|AVX|AVX2]
Thread count: 6 physical cores, 12 logical processors, using up to 12 threads

Non-default parameters:
Method  0
Presolve  0

Optimize a model with 7 rows, 50 columns and 150 nonzeros
Model fingerprint: 0x33015b2d
Variable types: 0 continuous, 50 integer (50 binary)
Coefficient statistics:
  Matrix range     [1e+00, 5e+07]
  Objective range  [1e-01, 1e+00]
  Bounds range     [1e+00, 1e+00]
  RHS range        [2e+00, 1e+11]
Warning: Model contains large rhs
         Consider reformulating model or setting NumericFocus parameter
         to avoid numerical issues.
Found heuristic solution: objective 5.9720001
Variable types: 0 continuous, 50 integer (50 binary)

Root relaxation: objective 9.258000e+00, 6 iterations, 0.00 seconds (0.00 work units)

    Nodes    |    Current Node    |     Objective Bounds      |     Work
 Expl Unexpl |  Obj  Depth IntInf | Incumbent    BestBd   Gap | It/Node Time

*    0     0               0       9.2580000    9.25800  0.00%     -    0s

Explored 1 nodes (6 simplex iterations) in 0.01 seconds (0.00 work units)
Thread count was 12 (of 12 available processors)

Solution count 2: 9.258 5.972 

Optimal solution found (tolerance 1.00e-04)
Best objective 9.258000016212e+00, best bound 9.258000016212e+00, gap 0.0000%
